Instance name: /home/cuong/CLionProjects/uMV-FSTSP/50_dis_rand_ins/v76
Write arg val: 1

drone speed: 1 miles/minute
uav non-eligible customer: 11 
Printing tau:
0 2.77982 41.4551 52.4237 33.7711 37.4965 26.5124 56.1459 39.6661 91.1551 88.8634 0 
2.77982 0 38.6753 52.4605 33.8079 37.5333 26.5493 58.9258 42.4459 91.1919 88.9002 2.77982 
41.4551 38.6753 0 34.8112 44.2039 65.6831 57.2039 97.6011 81.1212 73.5427 71.2509 41.4551 
52.4237 52.4605 34.8112 0 40.3978 61.8769 53.3978 93.7949 77.315 48.6428 46.3209 52.4237 
33.7711 33.8079 44.2039 40.3978 0 21.4791 13 53.3971 36.9173 57.384 55.0923 33.7711 
37.4965 37.5333 65.6831 61.8769 21.4791 0 10.984 31.918 15.4381 53.6587 51.3669 37.4965 
26.5124 26.5493 57.2039 53.3978 13 10.984 0 40.3971 23.9173 64.6427 62.3509 26.5124 
56.1459 58.9258 97.6011 93.7949 53.3971 31.918 40.3971 0 16.4799 55.7569 53.4652 56.1459 
39.6661 42.4459 81.1212 77.315 36.9173 15.4381 23.9173 16.4799 0 59.893 57.6013 39.6661 
91.1551 91.1919 73.5427 48.6428 57.384 53.6587 64.6427 55.7569 59.893 0 2.32189 91.1551 
88.8634 88.9002 71.2509 46.3209 55.0923 51.3669 62.3509 53.4652 57.6013 2.32189 0 88.8634 
0 0 0 0 0 0 0 0 0 0 0 0 
Printing tau_prime:
0 0.737175 11.9434 17.1143 8.98454 11.8377 8.17696 17.5998 13.3921 24.3463 23.6754 0 
0.737175 0 11.2727 16.7032 9.08376 12.2613 8.58485 18.2326 13.9842 24.4552 23.768 0.737175 
11.9434 11.2727 0 9.28573 12.4799 18.1974 15.351 26.3066 21.8129 23.9522 23.1005 11.9434 
17.1143 16.7032 9.28573 0 11.7988 16.8783 15.7382 25.2775 21.2553 16.4877 15.6278 17.1143 
8.98454 9.08376 12.4799 11.7988 0 5.78055 3.9481 14.1656 9.81175 15.3725 14.6927 8.98454 
11.8377 12.2613 18.1974 16.8783 5.78055 0 3.67944 8.4818 4.41484 14.6548 14.2316 11.8377 
8.17696 8.58485 15.351 15.7382 3.9481 3.67944 0 10.968 6.46587 17.1873 16.6394 8.17696 
17.5998 18.2326 26.3066 25.2775 14.1656 8.4818 10.968 0 4.50541 19.0246 18.9594 17.5998 
13.3921 13.9842 21.8129 21.2553 9.81175 4.41484 6.46587 4.50541 0 17.6076 17.3446 13.3921 
24.3463 24.4552 23.9522 16.4877 15.3725 14.6548 17.1873 19.0246 17.6076 0 0.865069 24.3463 
23.6754 23.768 23.1005 15.6278 14.6927 14.2316 16.6394 18.9594 17.3446 0.865069 0 23.6754 
0 0 0 0 0 0 0 0 0 0 0 0 
Version identifier: 22.1.1.0 | 2022-11-28 | 9160aff4d
CPXPARAM_MIP_Tolerances_Integrality              0
Tried aggregator 1 time.
MIP Presolve eliminated 1 rows and 12 columns.
MIP Presolve modified 20 coefficients.
Reduced MIP has 122 rows, 120 columns, and 510 nonzeros.
Reduced MIP has 110 binaries, 0 generals, 0 SOSs, and 0 indicators.
Presolve time = 0.00 sec. (0.27 ticks)
Found incumbent of value 513.463700 after 0.00 sec. (0.75 ticks)
Probing time = 0.00 sec. (0.26 ticks)
Cover probing fixed 0 vars, tightened 10 bounds.
Tried aggregator 1 time.
Detecting symmetries...
MIP Presolve eliminated 10 rows and 0 columns.
MIP Presolve modified 180 coefficients.
Reduced MIP has 112 rows, 120 columns, and 490 nonzeros.
Reduced MIP has 110 binaries, 0 generals, 0 SOSs, and 0 indicators.
Presolve time = 0.00 sec. (0.35 ticks)
Probing time = 0.00 sec. (0.26 ticks)
Clique table members: 67.
MIP emphasis: balance optimality and feasibility.
MIP search method: dynamic search.
Parallel mode: deterministic, using up to 20 threads.
Root relaxation solution time = 0.00 sec. (0.20 ticks)

        Nodes                                         Cuts/
   Node  Left     Objective  IInf  Best Integer    Best Bound    ItCnt     Gap

*     0+    0                          513.4637        0.0000           100.00%
      0     0      175.5743    19      513.4637      175.5743       23   65.81%
*     0+    0                          312.0948      175.5743            43.74%
      0     0      244.8764    18      312.0948      Cuts: 34       43   21.54%
      0     0      244.8764    18      312.0948      Cuts: 17       49   21.54%
*     0+    0                          289.4170      244.8764            15.39%
      0     0      244.8764    18      289.4170       Cuts: 4       51   15.39%
*     0+    0                          270.3391      244.8764             9.42%
      0     0        cutoff            270.3391      270.3391       51    0.00%
Elapsed time = 0.09 sec. (7.50 ticks, tree = 0.01 MB, solutions = 4)

Clique cuts applied:  3
Implied bound cuts applied:  5
Mixed integer rounding cuts applied:  8
Multi commodity flow cuts applied:  9
Gomory fractional cuts applied:  1

Root node processing (before b&c):
  Real time             =    0.09 sec. (7.51 ticks)
Parallel b&c, 20 threads:
  Real time             =    0.00 sec. (0.00 ticks)
  Sync time (average)   =    0.00 sec.
  Wait time (average)   =    0.00 sec.
                          ------------
Total (root+branch&cut) =    0.09 sec. (7.51 ticks)

TSP solution for this instance: 0 1 2 3 10 9 7 8 5 6 4 11 
12
Warmstart X[1][0] == 1
Warmstart X[2][1] == 1
Warmstart X[3][2] == 1
Warmstart X[4][3] == 1
Warmstart X[5][10] == 1
Warmstart X[6][9] == 1
Warmstart X[7][7] == 1
Warmstart X[8][8] == 1
Warmstart X[9][5] == 1
Warmstart X[10][6] == 1
Warmstart X[11][4] == 1
---------------------------------------------
Calculate max stage gap for sortie.... 
Stage gap calculation consumes too much memory. No constraint was added.
---------------------------------------------
Num constraint added = 5940
Warning:  Output names have been modified due to duplicate names or characters invalid in LP format.
Version identifier: 22.1.1.0 | 2022-11-28 | 9160aff4d
CPXPARAM_TimeLimit                               200
CPXPARAM_MIP_Tolerances_Integrality              0
1 of 1 MIP starts provided solutions.
MIP start 'm1' defined initial solution with objective 270.3391.
Tried aggregator 2 times.
MIP Presolve eliminated 6688 rows and 1633 columns.
MIP Presolve modified 2410 coefficients.
Aggregator did 42 substitutions.
Reduced MIP has 1371 rows, 3101 columns, and 33103 nonzeros.
Reduced MIP has 3080 binaries, 0 generals, 0 SOSs, and 0 indicators.
Presolve time = 0.03 sec. (87.03 ticks)
Probing fixed 582 vars, tightened 0 bounds.
Probing changed sense of 4 constraints.
Probing time = 0.04 sec. (96.55 ticks)
Cover probing fixed 0 vars, tightened 26 bounds.
Tried aggregator 2 times.
MIP Presolve eliminated 185 rows and 582 columns.
MIP Presolve modified 485 coefficients.
Aggregator did 17 substitutions.
Reduced MIP has 1169 rows, 2502 columns, and 24775 nonzeros.
Reduced MIP has 2481 binaries, 0 generals, 0 SOSs, and 0 indicators.
Presolve time = 0.02 sec. (44.07 ticks)
Probing time = 0.00 sec. (5.47 ticks)
Tried aggregator 1 time.
Detecting symmetries...
MIP Presolve modified 2 coefficients.
Reduced MIP has 1169 rows, 2502 columns, and 24775 nonzeros.
Reduced MIP has 2481 binaries, 0 generals, 0 SOSs, and 0 indicators.
Presolve time = 0.01 sec. (19.94 ticks)
Probing time = 0.00 sec. (5.44 ticks)
Clique table members: 14279.
MIP emphasis: balance optimality and feasibility.
MIP search method: dynamic search.
Parallel mode: deterministic, using up to 20 threads.
Root relaxation solution time = 0.12 sec. (224.34 ticks)

        Nodes                                         Cuts/
   Node  Left     Objective  IInf  Best Integer    Best Bound    ItCnt     Gap

*     0+    0                          270.3391        2.7798            98.97%
      0     0      153.9869   316      270.3391      153.9869       38   43.04%
*     0+    0                          252.2346      153.9869            38.95%
      0     0      191.4473   185      252.2346      Cuts: 43     1455   24.10%
      0     0      193.6664   203      252.2346      Cuts: 23     2186   23.22%
      0     0      194.1499   245      252.2346      Cuts: 11     2957   23.03%
      0     0      194.3353   275      252.2346      Cuts: 11     3962   22.95%
      0     0      194.3355   293      252.2346   ZeroHalf: 2     4047   22.95%
Detecting symmetries...
      0     0      194.4507   259      252.2346   ZeroHalf: 2     4617   22.91%
      0     0      194.8469   277      252.2346   ZeroHalf: 9     5648   22.75%
      0     0      195.3918   323      252.2346      Cuts: 11     6771   22.54%
      0     0      195.6298   314      252.2346       Cuts: 8     7341   22.44%
      0     0      195.6806   300      252.2346   ZeroHalf: 1     7813   22.42%
      0     0      195.8761   330      252.2346   ZeroHalf: 2     8451   22.34%
      0     0      195.8995   315      252.2346   ZeroHalf: 3     8760   22.33%
      0     0      195.9532   319      252.2346   ZeroHalf: 2     9265   22.31%
      0     0      196.0300   330      252.2346   ZeroHalf: 7     9813   22.28%
      0     0      196.0933   301      252.2346       Cuts: 3    10047   22.26%
      0     0      196.2247   297      252.2346   ZeroHalf: 3    10705   22.21%
      0     0      196.2634   282      252.2346   ZeroHalf: 4    11202   22.19%
      0     0      196.4656   285      252.2346       Cuts: 8    12122   22.11%
      0     0      196.6486   303      252.2346   ZeroHalf: 1    12468   22.04%
      0     0      196.6486   321      252.2346       Cuts: 6    12783   22.04%
Detecting symmetries...
      0     2      196.6486   314      252.2346      196.6486    12783   22.04%
Elapsed time = 2.04 sec. (3673.44 ticks, tree = 0.02 MB, solutions = 2)
      3     3      196.7710   300      252.2346      196.7115    16030   22.01%
     22     5      250.2813   235      252.2346      197.8175    22823   21.57%
     52     7      238.6038   105      252.2346      203.7006    33228   19.24%
     85     3      220.5408   115      252.2346      220.5408    45836   12.57%
    421    36      242.4893   274      252.2346      224.0187    73559   11.19%
*   954    17      integral     0      241.7366      225.0113   115264    6.92%
   1020     8      238.3298    51      241.7366      225.0113   122807    6.92%
   1200    12      237.0467    84      241.7366      228.2227   148647    5.59%
   1299     7      239.6763   115      241.7366      230.8599   165314    4.50%

GUB cover cuts applied:  7
Cover cuts applied:  39
Implied bound cuts applied:  53
Flow cuts applied:  1
Zero-half cuts applied:  21
Lift and project cuts applied:  1
Gomory fractional cuts applied:  2

Root node processing (before b&c):
  Real time             =    1.99 sec. (3593.58 ticks)
Parallel b&c, 20 threads:
  Real time             =    1.39 sec. (2282.82 ticks)
  Sync time (average)   =    1.04 sec.
  Wait time (average)   =    0.00 sec.
                          ------------
Total (root+branch&cut) =    3.38 sec. (5876.39 ticks)
Feasible solution found!
Truck nodes:
Stage 1 at customer 0 with arrival time is: 0
Stage 1 at customer 0 with departure time is: 0
Stage 2 at customer 6 with arrival time is: 26.5124
Stage 2 at customer 6 with departure time is: 27.5124
Stage 3 at customer 5 with arrival time is: 38.4964
Stage 3 at customer 5 with departure time is: 40.4964
Stage 4 at customer 8 with arrival time is: 55.9345
Stage 4 at customer 8 with departure time is: 56.9345
Stage 5 at customer 9 with arrival time is: 116.828
Stage 5 at customer 9 with departure time is: 116.828
Stage 6 at customer 10 with arrival time is: 119.149
Stage 6 at customer 10 with departure time is: 119.149
Stage 7 at customer 3 with arrival time is: 165.47
Stage 7 at customer 3 with departure time is: 165.47
Stage 8 at customer 2 with arrival time is: 200.281
Stage 8 at customer 2 with departure time is: 200.281
Stage 9 at customer 1 with arrival time is: 238.957
Stage 9 at customer 1 with departure time is: 238.957
Stage 10 at customer 11 with arrival time is: 241.737
Stage 10 at customer 11 with departure time is: 241.737
Truck arcs:
Arc 1 connecting 0 and 6 with cost 26.5124 
Arc 2 connecting 6 and 5 with cost 10.984 
Arc 3 connecting 5 and 8 with cost 15.4381 
Arc 4 connecting 8 and 9 with cost 59.893 
Arc 5 connecting 9 and 10 with cost 2.32189 
Arc 6 connecting 10 and 3 with cost 46.3209 
Arc 7 connecting 3 and 2 with cost 34.8112 
Arc 8 connecting 2 and 1 with cost 38.6753 
Arc 9 connecting 1 and 11 with cost 2.77982 
Customer 4 served by drone.
Drone fly from 6 at stage 2 to serve 4 and then fly back to 5 at stage 3. 
Truck arcs during this sortie: 6--->5
Truck travel time from stage 2 to 3 is: 10.984
Total drone travel time: 9.72865
Drone arrival time: 37.2411
Truck arrival time: 38.4964
Truck departure time = max(d/a, t/a) plus (sl/sr): 40.4964
Customer 7 served by drone.
Drone fly from 5 at stage 3 to serve 7 and then fly back to 8 at stage 4. 
Truck arcs during this sortie: 5--->8
Truck travel time from stage 3 to 4 is: 15.4381
Total drone travel time: 12.9872
Drone arrival time: 53.4836
Truck arrival time: 55.9345
Truck departure time = max(d/a, t/a) plus (sl/sr): 56.9345
Done!
-------------------------Re-calculated objective-----------------------
241.737
------------------------------------------------------------------------
Solve time: 3.386
OBJECTIVE VALUE: 241.737, NUMBER OF SORTIES: 2.
Number of revisit: 0
In write mode
